variable temperature equal 0.5
variable randomSeed equal 239288

# Initialise parameters for units and box type
units       lj
dimension   3
boundary    p p p
atom_style  full

# Initital pair style and bond parameters
bond_style  harmonic

# Create new simulation box or load existing box
read_data       HP_fh014.config

# Set pair parameters
include         HP_potentials.dat

velocity        all create ${temperature} ${randomSeed}

special_bonds fene

# neighbour list settings
neighbor  2.0 bin

# Timestep and computational parameters
comm_style      tiled
comm_modify cutoff 9
timestep        0.005

# Relax sim by performing minimisation (this is helpful if we change the potential or sequence)
# min_style       fire
# timestep        0.0000001
# minimize 0.0 1.0e-8 10000 100000000
# timestep        0.00001
# minimize 0.0 1.0e-8 10000 100000000
# timestep        0.1
# minimize 0.0 1.0e-8 10000 100000
# timestep        10
# minimize 0.0 1.0e-8 10000 100000

neigh_modify    every 10 delay 0

fix             fxnve   all nve
fix             fxlange all langevin ${temperature} ${temperature} 1 ${randomSeed}
fix             fxbal  all balance 10 1.1 rcb

# Thermo output settings
thermo          1000
thermo_style    custom step pe ecoul ke temp press density
thermo_modify   flush yes

dump            1 all custom 5000 equilibration.lammpstrj id mol type q x y z

# Equilibration
run             500000

compute         myChunk2 all chunk/atom bin/1d z lower 0.02 units reduced
fix             densityRegions2 all ave/chunk 1000 80 100000 myChunk2 density/mass file densities_chunked2.dat

fix fixCOM all recenter INIT INIT INIT  # this helps to prevent drift of the interfaces and makes it easier to average over many measurements

dump            2 all custom 100000 output.lammpstrj id mol type q x y z

# Run simulation
restart         20000000 restart
run             100000000

# write final configuration
write_data      final-structure.dat nocoeff